% seed = 7550776

mint = 36;
% maxt = 113;

nActs = 22;
dur = [0,8,2,5,6,6,10,2,9,1,2,8,7,6,3,10,10,2,9,2,5,0];

nSkills = 4;
sreq = [| 0,0,0,0,
	| 2,3,1,3,
	| 3,1,2,2,
	| 2,3,3,3,
	| 3,2,1,2,
	| 3,2,3,2,
	| 2,1,3,1,
	| 2,1,2,1,
	| 2,2,3,2,
	| 1,1,3,2,
	| 1,3,3,1,
	| 3,2,1,3,
	| 2,3,2,2,
	| 1,3,3,1,
	| 3,1,1,2,
	| 3,2,3,1,
	| 1,2,3,2,
	| 2,2,3,1,
	| 1,1,1,1,
	| 2,1,2,2,
	| 2,1,3,2,
	| 0,0,0,0, |];

nResources = 25;
mastery = [| false,false,true,false,
	| false,false,false,true,
	| true,false,false,false,
	| false,true,true,true,
	| false,true,true,true,
	| true,false,false,false,
	| false,true,true,true,
	| true,false,true,false,
	| false,false,true,false,
	| false,true,true,true,
	| false,false,true,false,
	| true,false,true,true,
	| true,false,false,true,
	| false,true,false,false,
	| false,true,true,false,
	| false,true,false,false,
	| false,true,true,true,
	| false,true,false,true,
	| false,true,false,true,
	| true,false,true,true,
	| false,true,false,false,
	| false,true,false,true,
	| true,true,true,false,
	| false,true,true,true,
	| true,true,false,true, |];

nPrecs = 43;
pred = [1,1,1,2,2,2,3,3,3,4,4,5,5,5,6,6,7,7,7,8,8,9,9,9,10,11,12,12,12,13,13,13,14,15,15,16,17,17,17,18,19,20,21];
succ = [2,3,4,9,11,8,10,6,7,5,7,11,12,8,17,12,19,12,15,17,10,17,14,16,21,13,18,14,16,18,19,15,20,21,16,20,18,19,21,20,22,22,22];

nUnrels = 80;
unpred = [2,2,2,2,2,2,3,3,3,3,3,3,4,4,5,5,5,6,6,6,6,6,6,6,7,7,7,7,7,7,8,8,8,8,8,8,8,9,9,9,9,9,10,10,10,10,10,10,10,10,10,10,11,11,11,12,12,12,12,12,13,13,14,14,14,14,14,14,15,15,15,16,16,16,16,18,18,19,19,20];
unsucc = [3,4,5,6,7,12,4,5,8,9,11,13,6,9,6,7,9,7,8,9,10,11,13,15,8,9,10,11,13,17,9,11,12,13,14,15,16,10,11,12,13,15,11,12,13,14,15,16,17,18,19,20,12,14,17,13,15,17,19,21,14,17,15,16,17,18,19,21,17,18,19,17,18,19,21,19,21,20,21,21];

USEFUL_RES = [{},
	{1,2,3,4,5,6,7,8,9,10,11,12,13,14,15,16,17,18,19,20,21,22,23,24,25},
	{1,2,3,4,5,6,7,8,9,10,11,12,13,14,15,16,17,18,19,20,21,22,23,24,25},
	{1,2,3,4,5,6,7,8,9,10,11,12,13,14,15,16,17,18,19,20,21,22,23,24,25},
	{1,2,3,4,5,6,7,8,9,10,11,12,13,14,15,16,17,18,19,20,21,22,23,24,25},
	{1,2,3,4,5,6,7,8,9,10,11,12,13,14,15,16,17,18,19,20,21,22,23,24,25},
	{1,2,3,4,5,6,7,8,9,10,11,12,13,14,15,16,17,18,19,20,21,22,23,24,25},
	{1,2,3,4,5,6,7,8,9,10,11,12,13,14,15,16,17,18,19,20,21,22,23,24,25},
	{1,2,3,4,5,6,7,8,9,10,11,12,13,14,15,16,17,18,19,20,21,22,23,24,25},
	{1,2,3,4,5,6,7,8,9,10,11,12,13,14,15,16,17,18,19,20,21,22,23,24,25},
	{1,2,3,4,5,6,7,8,9,10,11,12,13,14,15,16,17,18,19,20,21,22,23,24,25},
	{1,2,3,4,5,6,7,8,9,10,11,12,13,14,15,16,17,18,19,20,21,22,23,24,25},
	{1,2,3,4,5,6,7,8,9,10,11,12,13,14,15,16,17,18,19,20,21,22,23,24,25},
	{1,2,3,4,5,6,7,8,9,10,11,12,13,14,15,16,17,18,19,20,21,22,23,24,25},
	{1,2,3,4,5,6,7,8,9,10,11,12,13,14,15,16,17,18,19,20,21,22,23,24,25},
	{1,2,3,4,5,6,7,8,9,10,11,12,13,14,15,16,17,18,19,20,21,22,23,24,25},
	{1,2,3,4,5,6,7,8,9,10,11,12,13,14,15,16,17,18,19,20,21,22,23,24,25},
	{1,2,3,4,5,6,7,8,9,10,11,12,13,14,15,16,17,18,19,20,21,22,23,24,25},
	{1,2,3,4,5,6,7,8,9,10,11,12,13,14,15,16,17,18,19,20,21,22,23,24,25},
	{1,2,3,4,5,6,7,8,9,10,11,12,13,14,15,16,17,18,19,20,21,22,23,24,25},
	{1,2,3,4,5,6,7,8,9,10,11,12,13,14,15,16,17,18,19,20,21,22,23,24,25},
	{}];

POTENTIAL_ACT = [{2,3,4,5,6,7,8,9,10,11,12,13,14,15,16,17,18,19,20,21},
	{2,3,4,5,6,7,8,9,10,11,12,13,14,15,16,17,18,19,20,21},
	{2,3,4,5,6,7,8,9,10,11,12,13,14,15,16,17,18,19,20,21},
	{2,3,4,5,6,7,8,9,10,11,12,13,14,15,16,17,18,19,20,21},
	{2,3,4,5,6,7,8,9,10,11,12,13,14,15,16,17,18,19,20,21},
	{2,3,4,5,6,7,8,9,10,11,12,13,14,15,16,17,18,19,20,21},
	{2,3,4,5,6,7,8,9,10,11,12,13,14,15,16,17,18,19,20,21},
	{2,3,4,5,6,7,8,9,10,11,12,13,14,15,16,17,18,19,20,21},
	{2,3,4,5,6,7,8,9,10,11,12,13,14,15,16,17,18,19,20,21},
	{2,3,4,5,6,7,8,9,10,11,12,13,14,15,16,17,18,19,20,21},
	{2,3,4,5,6,7,8,9,10,11,12,13,14,15,16,17,18,19,20,21},
	{2,3,4,5,6,7,8,9,10,11,12,13,14,15,16,17,18,19,20,21},
	{2,3,4,5,6,7,8,9,10,11,12,13,14,15,16,17,18,19,20,21},
	{2,3,4,5,6,7,8,9,10,11,12,13,14,15,16,17,18,19,20,21},
	{2,3,4,5,6,7,8,9,10,11,12,13,14,15,16,17,18,19,20,21},
	{2,3,4,5,6,7,8,9,10,11,12,13,14,15,16,17,18,19,20,21},
	{2,3,4,5,6,7,8,9,10,11,12,13,14,15,16,17,18,19,20,21},
	{2,3,4,5,6,7,8,9,10,11,12,13,14,15,16,17,18,19,20,21},
	{2,3,4,5,6,7,8,9,10,11,12,13,14,15,16,17,18,19,20,21},
	{2,3,4,5,6,7,8,9,10,11,12,13,14,15,16,17,18,19,20,21},
	{2,3,4,5,6,7,8,9,10,11,12,13,14,15,16,17,18,19,20,21},
	{2,3,4,5,6,7,8,9,10,11,12,13,14,15,16,17,18,19,20,21},
	{2,3,4,5,6,7,8,9,10,11,12,13,14,15,16,17,18,19,20,21},
	{2,3,4,5,6,7,8,9,10,11,12,13,14,15,16,17,18,19,20,21},
	{2,3,4,5,6,7,8,9,10,11,12,13,14,15,16,17,18,19,20,21}];
